8  8  6.5 
3  7  1  5  2  3  3  5  4  3  5  3  7  10  8  9  7  1  10  3  5  4  8  5  3  6  9  7  9  8  6  6  2  10  4  5  5  6  6  2  7  4  8  5 
4  6  1  5  2  7  3  3  4  9  5  8  7  9  7  2  8  3  5  4  2  5  6  6  7  7  10  8  9  6  2  10  4  5  5  6  6  4  7  1  8  7  6  1  10  2  8  3  9  4  6   5  4  6  7 
3  6  1  10  4  7  5  6  6  5  7  2  8  4  6  2  10  3  6  4  4  5  8  6  9  7  10  6  1  1  2    4  3  5  4  6  6 10  8  7 
3  8  1  3  2  1  3  6  4  5  5  9  6  7  7  8  8  4  8  1  12  2  11  3  7  4  8  5  10  6  5  7  6  8  9  8  1  4  2  6  3  2  4  10  5  3  6  9  7  5  8  7 
4  6  1  3  2  6  3  7  4  8  5  9  7  10  6  1  10  3  7  4  4  5  9  6  8  7  6  6  2  9  3  8  4  7  5  4  6  2  7  7  7  1  11  2  9  4  6  5  7  6  5  7  3  8  6 
3  7  1  6  2  7  3  1  4  4  5  6  6  9  8  10  7  1  11  3  9   4  9  5  9  6  7  7  8  8  4  6  1  10  2  5  3  9  4  10  5  11  7  10 
3  6  1  5  2  4  3  2  4  6  5  7  7  10  6  2  9  4  9  5  11 6  9  7  10  8  5  6  2  8  3  9  4  3  5  8   6   6  8  10  
4  6  1  2  2  8  3  5  4  9  6  4  8  10  6  1  7  2  4  3  7  4  8   5   9   7  10  7  1  9  2  9  4  8  5  5  6  6  7  7  8  1  6  1  9  3  3  4  7  5  1  6  5  7  8   